p cnf 49 154
28 29 30 0
35 36 37 38 39 40 0
-1 -6 0
-1 -12 0
-1 -16 0
-1 -22 0
-1 -31 0
-1 -35 0
-1 -41 0
-6 -12 0
-6 -16 0
-6 -22 0
-6 -31 0
-6 -35 0
-6 -41 0
-12 -16 0
-12 -22 0
-12 -31 0
-12 -35 0
-12 -41 0
-16 -22 0
-16 -31 0
-16 -35 0
-16 -41 0
-22 -31 0
-22 -35 0
-22 -41 0
-31 -35 0
-31 -41 0
-35 -41 0
-2 -7 0
-2 -32 0
-2 -36 0
-2 -42 0
-2 -46 0
-7 -32 0
-7 -36 0
-7 -42 0
-7 -46 0
-32 -36 0
-32 -42 0
-32 -46 0
-36 -42 0
-36 -46 0
-42 -46 0
-3 -8 0
-3 -13 0
-3 -17 0
-3 -23 0
-3 -28 0
-3 -33 0
-3 -37 0
-3 -43 0
-8 -13 0
-8 -17 0
-8 -23 0
-8 -28 0
-8 -33 0
-8 -37 0
-8 -43 0
-13 -17 0
-13 -23 0
-13 -28 0
-13 -33 0
-13 -37 0
-13 -43 0
-17 -23 0
-17 -28 0
-17 -33 0
-17 -37 0
-17 -43 0
-23 -28 0
-23 -33 0
-23 -37 0
-23 -43 0
-28 -33 0
-28 -37 0
-28 -43 0
-33 -37 0
-33 -43 0
-37 -43 0
-9 -18 0
-9 -24 0
-9 -34 0
-9 -44 0
-9 -47 0
-18 -24 0
-18 -34 0
-18 -44 0
-18 -47 0
-24 -34 0
-24 -44 0
-24 -47 0
-34 -44 0
-34 -47 0
-44 -47 0
-4 -14 0
-4 -19 0
-4 -25 0
-4 -29 0
-4 -38 0
-14 -19 0
-14 -25 0
-14 -29 0
-14 -38 0
-19 -25 0
-19 -29 0
-19 -38 0
-25 -29 0
-25 -38 0
-29 -38 0
-5 -10 0
-5 -15 0
-5 -20 0
-5 -26 0
-5 -39 0
-5 -45 0
-5 -48 0
-10 -15 0
-10 -20 0
-10 -26 0
-10 -39 0
-10 -45 0
-10 -48 0
-15 -20 0
-15 -26 0
-15 -39 0
-15 -45 0
-15 -48 0
-20 -26 0
-20 -39 0
-20 -45 0
-20 -48 0
-26 -39 0
-26 -45 0
-26 -48 0
-39 -45 0
-39 -48 0
-45 -48 0
-11 -21 0
-11 -27 0
-11 -30 0
-11 -40 0
-11 -49 0
-21 -27 0
-21 -30 0
-21 -40 0
-21 -49 0
-27 -30 0
-27 -40 0
-27 -49 0
-30 -40 0
-30 -49 0
-40 -49 0
